c description: Graph pigeonhole principle formula on fast_gnp_random_graph(20,10,0.5)
c generator: CNFgen (0.9.0)
c copyright: (C) 2012-2020 Massimo Lauria <massimo.lauria@uniroma1.it>
c url: https://massimolauria.net/cnfgen
c
p cnf 102 513
1 0
2 3 4 5 6 0
7 8 0
9 10 11 12 13 14 15 0
16 17 18 19 20 0
21 22 23 24 25 26 0
27 28 29 30 31 32 33 0
34 35 36 0
37 38 39 40 41 42 0
43 44 45 46 47 48 0
49 50 51 52 53 0
54 55 56 57 58 0
59 60 61 62 63 64 0
65 66 67 0
68 69 70 71 72 73 0
74 75 76 77 78 79 80 0
81 82 83 84 85 86 87 0
88 89 90 91 92 93 0
94 95 96 97 0
98 99 100 101 102 0
-1 -7 0
-1 -9 0
-1 -16 0
-1 -21 0
-1 -49 0
-1 -54 0
-1 -59 0
-1 -68 0
-1 -74 0
-1 -81 0
-1 -98 0
-7 -9 0
-7 -16 0
-7 -21 0
-7 -49 0
-7 -54 0
-7 -59 0
-7 -68 0
-7 -74 0
-7 -81 0
-7 -98 0
-9 -16 0
-9 -21 0
-9 -49 0
-9 -54 0
-9 -59 0
-9 -68 0
-9 -74 0
-9 -81 0
-9 -98 0
-16 -21 0
-16 -49 0
-16 -54 0
-16 -59 0
-16 -68 0
-16 -74 0
-16 -81 0
-16 -98 0
-21 -49 0
-21 -54 0
-21 -59 0
-21 -68 0
-21 -74 0
-21 -81 0
-21 -98 0
-49 -54 0
-49 -59 0
-49 -68 0
-49 -74 0
-49 -81 0
-49 -98 0
-54 -59 0
-54 -68 0
-54 -74 0
-54 -81 0
-54 -98 0
-59 -68 0
-59 -74 0
-59 -81 0
-59 -98 0
-68 -74 0
-68 -81 0
-68 -98 0
-74 -81 0
-74 -98 0
-81 -98 0
-2 -17 0
-2 -27 0
-2 -34 0
-2 -37 0
-2 -43 0
-2 -69 0
-2 -82 0
-2 -88 0
-17 -27 0
-17 -34 0
-17 -37 0
-17 -43 0
-17 -69 0
-17 -82 0
-17 -88 0
-27 -34 0
-27 -37 0
-27 -43 0
-27 -69 0
-27 -82 0
-27 -88 0
-34 -37 0
-34 -43 0
-34 -69 0
-34 -82 0
-34 -88 0
-37 -43 0
-37 -69 0
-37 -82 0
-37 -88 0
-43 -69 0
-43 -82 0
-43 -88 0
-69 -82 0
-69 -88 0
-82 -88 0
-3 -10 0
-3 -22 0
-3 -28 0
-3 -38 0
-3 -50 0
-3 -55 0
-3 -60 0
-3 -70 0
-3 -75 0
-3 -83 0
-3 -94 0
-3 -99 0
-10 -22 0
-10 -28 0
-10 -38 0
-10 -50 0
-10 -55 0
-10 -60 0
-10 -70 0
-10 -75 0
-10 -83 0
-10 -94 0
-10 -99 0
-22 -28 0
-22 -38 0
-22 -50 0
-22 -55 0
-22 -60 0
-22 -70 0
-22 -75 0
-22 -83 0
-22 -94 0
-22 -99 0
-28 -38 0
-28 -50 0
-28 -55 0
-28 -60 0
-28 -70 0
-28 -75 0
-28 -83 0
-28 -94 0
-28 -99 0
-38 -50 0
-38 -55 0
-38 -60 0
-38 -70 0
-38 -75 0
-38 -83 0
-38 -94 0
-38 -99 0
-50 -55 0
-50 -60 0
-50 -70 0
-50 -75 0
-50 -83 0
-50 -94 0
-50 -99 0
-55 -60 0
-55 -70 0
-55 -75 0
-55 -83 0
-55 -94 0
-55 -99 0
-60 -70 0
-60 -75 0
-60 -83 0
-60 -94 0
-60 -99 0
-70 -75 0
-70 -83 0
-70 -94 0
-70 -99 0
-75 -83 0
-75 -94 0
-75 -99 0
-83 -94 0
-83 -99 0
-94 -99 0
-11 -23 0
-11 -29 0
-11 -35 0
-11 -44 0
-11 -51 0
-11 -61 0
-11 -65 0
-11 -71 0
-11 -76 0
-11 -84 0
-11 -89 0
-23 -29 0
-23 -35 0
-23 -44 0
-23 -51 0
-23 -61 0
-23 -65 0
-23 -71 0
-23 -76 0
-23 -84 0
-23 -89 0
-29 -35 0
-29 -44 0
-29 -51 0
-29 -61 0
-29 -65 0
-29 -71 0
-29 -76 0
-29 -84 0
-29 -89 0
-35 -44 0
-35 -51 0
-35 -61 0
-35 -65 0
-35 -71 0
-35 -76 0
-35 -84 0
-35 -89 0
-44 -51 0
-44 -61 0
-44 -65 0
-44 -71 0
-44 -76 0
-44 -84 0
-44 -89 0
-51 -61 0
-51 -65 0
-51 -71 0
-51 -76 0
-51 -84 0
-51 -89 0
-61 -65 0
-61 -71 0
-61 -76 0
-61 -84 0
-61 -89 0
-65 -71 0
-65 -76 0
-65 -84 0
-65 -89 0
-71 -76 0
-71 -84 0
-71 -89 0
-76 -84 0
-76 -89 0
-84 -89 0
-4 -18 0
-4 -30 0
-4 -39 0
-4 -45 0
-4 -56 0
-4 -62 0
-4 -66 0
-4 -85 0
-4 -90 0
-4 -95 0
-18 -30 0
-18 -39 0
-18 -45 0
-18 -56 0
-18 -62 0
-18 -66 0
-18 -85 0
-18 -90 0
-18 -95 0
-30 -39 0
-30 -45 0
-30 -56 0
-30 -62 0
-30 -66 0
-30 -85 0
-30 -90 0
-30 -95 0
-39 -45 0
-39 -56 0
-39 -62 0
-39 -66 0
-39 -85 0
-39 -90 0
-39 -95 0
-45 -56 0
-45 -62 0
-45 -66 0
-45 -85 0
-45 -90 0
-45 -95 0
-56 -62 0
-56 -66 0
-56 -85 0
-56 -90 0
-56 -95 0
-62 -66 0
-62 -85 0
-62 -90 0
-62 -95 0
-66 -85 0
-66 -90 0
-66 -95 0
-85 -90 0
-85 -95 0
-90 -95 0
-5 -8 0
-5 -12 0
-5 -31 0
-5 -40 0
-5 -46 0
-5 -77 0
-5 -86 0
-5 -96 0
-5 -100 0
-8 -12 0
-8 -31 0
-8 -40 0
-8 -46 0
-8 -77 0
-8 -86 0
-8 -96 0
-8 -100 0
-12 -31 0
-12 -40 0
-12 -46 0
-12 -77 0
-12 -86 0
-12 -96 0
-12 -100 0
-31 -40 0
-31 -46 0
-31 -77 0
-31 -86 0
-31 -96 0
-31 -100 0
-40 -46 0
-40 -77 0
-40 -86 0
-40 -96 0
-40 -100 0
-46 -77 0
-46 -86 0
-46 -96 0
-46 -100 0
-77 -86 0
-77 -96 0
-77 -100 0
-86 -96 0
-86 -100 0
-96 -100 0
-13 -19 0
-13 -24 0
-13 -41 0
-13 -47 0
-13 -52 0
-13 -57 0
-13 -72 0
-13 -78 0
-13 -87 0
-13 -91 0
-13 -101 0
-19 -24 0
-19 -41 0
-19 -47 0
-19 -52 0
-19 -57 0
-19 -72 0
-19 -78 0
-19 -87 0
-19 -91 0
-19 -101 0
-24 -41 0
-24 -47 0
-24 -52 0
-24 -57 0
-24 -72 0
-24 -78 0
-24 -87 0
-24 -91 0
-24 -101 0
-41 -47 0
-41 -52 0
-41 -57 0
-41 -72 0
-41 -78 0
-41 -87 0
-41 -91 0
-41 -101 0
-47 -52 0
-47 -57 0
-47 -72 0
-47 -78 0
-47 -87 0
-47 -91 0
-47 -101 0
-52 -57 0
-52 -72 0
-52 -78 0
-52 -87 0
-52 -91 0
-52 -101 0
-57 -72 0
-57 -78 0
-57 -87 0
-57 -91 0
-57 -101 0
-72 -78 0
-72 -87 0
-72 -91 0
-72 -101 0
-78 -87 0
-78 -91 0
-78 -101 0
-87 -91 0
-87 -101 0
-91 -101 0
-14 -20 0
-14 -32 0
-14 -36 0
-14 -63 0
-14 -67 0
-14 -79 0
-20 -32 0
-20 -36 0
-20 -63 0
-20 -67 0
-20 -79 0
-32 -36 0
-32 -63 0
-32 -67 0
-32 -79 0
-36 -63 0
-36 -67 0
-36 -79 0
-63 -67 0
-63 -79 0
-67 -79 0
-6 -15 0
-6 -25 0
-6 -42 0
-6 -48 0
-6 -64 0
-6 -73 0
-6 -92 0
-6 -97 0
-6 -102 0
-15 -25 0
-15 -42 0
-15 -48 0
-15 -64 0
-15 -73 0
-15 -92 0
-15 -97 0
-15 -102 0
-25 -42 0
-25 -48 0
-25 -64 0
-25 -73 0
-25 -92 0
-25 -97 0
-25 -102 0
-42 -48 0
-42 -64 0
-42 -73 0
-42 -92 0
-42 -97 0
-42 -102 0
-48 -64 0
-48 -73 0
-48 -92 0
-48 -97 0
-48 -102 0
-64 -73 0
-64 -92 0
-64 -97 0
-64 -102 0
-73 -92 0
-73 -97 0
-73 -102 0
-92 -97 0
-92 -102 0
-97 -102 0
-26 -33 0
-26 -53 0
-26 -58 0
-26 -80 0
-26 -93 0
-33 -53 0
-33 -58 0
-33 -80 0
-33 -93 0
-53 -58 0
-53 -80 0
-53 -93 0
-58 -80 0
-58 -93 0
-80 -93 0